

******************************************************************************
This program contains Ipopt, a library for large-scale nonlinear optimization.
 Ipopt is released as open source code under the Eclipse Public License (EPL).
         For more information visit http://projects.coin-or.org/Ipopt
******************************************************************************

This is Ipopt version 3.12.8, running with linear solver mumps.
NOTE: Other linear solvers might be more efficient (see Ipopt documentation).

Number of nonzeros in equality constraint Jacobian...:      112
Number of nonzeros in inequality constraint Jacobian.:       20
Number of nonzeros in Lagrangian Hessian.............:       10

Total number of variables............................:       58
                     variables with only lower bounds:        0
                variables with lower and upper bounds:       30
                     variables with only upper bounds:        0
Total number of equality constraints.................:       40
Total number of inequality constraints...............:       10
        inequality constraints with only lower bounds:        0
   inequality constraints with lower and upper bounds:       10
        inequality constraints with only upper bounds:        0

iter    objective    inf_pr   inf_du lg(mu)  ||d||  lg(rg) alpha_du alpha_pr  ls
   0  1.5001818e+01 9.00e-01 6.72e-01  -1.0 0.00e+00    -  0.00e+00 0.00e+00   0
   1  1.0630224e+01 3.37e-01 8.37e+00  -1.0 1.39e+00    -  4.14e-01 1.00e+00f  1
   2  7.0811394e+00 1.04e+00 2.21e+00  -1.0 3.06e+00    -  3.91e-01 5.63e-01f  1
   3  7.3612069e+00 2.23e-01 8.91e-01  -1.0 5.91e-01   0.0 5.90e-01 7.80e-01h  1
   4  6.3081001e+00 5.51e-01 8.17e-01  -1.0 2.96e+00  -0.5 3.11e-01 4.05e-01f  1
   5  4.7451562e+00 5.35e-01 1.53e+00  -1.7 1.89e+00  -1.0 4.57e-01 8.75e-01f  1
   6  4.5976822e+00 5.57e-01 1.40e+00  -1.7 7.09e+00    -  1.04e-01 5.56e-02h  1
   7  4.2295563e+00 2.60e-02 1.08e+00  -1.7 9.14e-01    -  2.98e-01 1.00e+00f  1
   8  3.8078718e+00 1.11e-15 6.58e-01  -1.7 1.37e+00    -  5.05e-01 3.96e-01f  1
   9  3.3779407e+00 1.04e-15 1.70e-01  -1.7 1.14e+00    -  7.05e-01 7.45e-01f  1
iter    objective    inf_pr   inf_du lg(mu)  ||d||  lg(rg) alpha_du alpha_pr  ls
  10  3.2718402e+00 9.23e-16 8.80e-02  -2.5 3.06e-01    -  6.34e-01 6.75e-01h  1
  11  3.1958544e+00 1.33e-15 7.68e-03  -2.5 1.77e-01    -  1.00e+00 1.00e+00f  1
  12  3.1692042e+00 1.19e-15 2.59e-03  -3.8 1.01e-01    -  9.60e-01 9.47e-01h  1
  13  3.1641918e+00 1.34e-15 4.60e-06  -3.8 4.11e-02    -  1.00e+00 1.00e+00h  1
  14  3.1620471e+00 9.96e-16 8.39e-07  -5.7 2.39e-02    -  1.00e+00 1.00e+00h  1
  15  3.1618225e+00 1.24e-15 2.17e-08  -5.7 1.20e-02    -  1.00e+00 1.00e+00h  1
  16  3.1617703e+00 6.10e-16 3.40e-11  -5.7 5.81e-03    -  1.00e+00 1.00e+00h  1
  17  3.1617401e+00 8.31e-16 6.04e-07  -8.6 3.25e-03    -  9.99e-01 1.00e+00h  1
  18  3.1617362e+00 1.09e-15 7.23e-12  -8.6 1.62e-03    -  1.00e+00 1.00e+00h  1
  19  3.1617353e+00 8.33e-16 3.21e-16  -8.6 8.11e-04    -  1.00e+00 1.00e+00h  1
iter    objective    inf_pr   inf_du lg(mu)  ||d||  lg(rg) alpha_du alpha_pr  ls
  20  3.1617350e+00 1.55e-15 3.13e-16  -8.6 4.02e-04    -  1.00e+00 1.00e+00h  1
  21  3.1617350e+00 8.33e-16 1.52e-16  -8.6 1.94e-04    -  1.00e+00 1.00e+00h  1
  22  3.1617349e+00 1.33e-15 2.00e-14  -9.0 1.01e-04    -  1.00e+00 1.00e+00h  1

Number of Iterations....: 22

                                   (scaled)                 (unscaled)
Objective...............:   3.1617349311297129e+00    3.1617349311297129e+00
Dual infeasibility......:   2.0033935177032197e-14    2.0033935177032197e-14
Constraint violation....:   1.3322676295501878e-15    1.3322676295501878e-15
Complementarity.........:   3.1554389814606947e-09    3.1554389814606947e-09
Overall NLP error.......:   3.1554389814606947e-09    3.1554389814606947e-09


Number of objective function evaluations             = 23
Number of objective gradient evaluations             = 23
Number of equality constraint evaluations            = 23
Number of inequality constraint evaluations          = 23
Number of equality constraint Jacobian evaluations   = 23
Number of inequality constraint Jacobian evaluations = 23
Number of Lagrangian Hessian evaluations             = 22
Total CPU secs in IPOPT (w/o function evaluations)   =      0.006
Total CPU secs in NLP function evaluations           =      0.000

EXIT: Optimal Solution Found.
 
Ipopt 3.12.8: Optimal Solution Found
